\ENCODING=ISO-8859-1
\Problem name: ilog.cplex

Minimize
 obj1: y0 + y1 + y2 + y3 + y4
Subject To
 c1:  x0,0 + x0,1 + x0,2 + x0,3 + x0,4  = 1
 c2:  x1,0 + x1,1 + x1,2 + x1,3 + x1,4  = 1
 c3:  x2,0 + x2,1 + x2,2 + x2,3 + x2,4  = 1
 c4:  x3,0 + x3,1 + x3,2 + x3,3 + x3,4  = 1
 c5:  x4,0 + x4,1 + x4,2 + x4,3 + x4,4  = 1
 c6:  - y0 + x0,0 + x1,0 <= 0
 c7:  - y1 + x0,1 + x1,1 <= 0
 c8:  - y2 + x0,2 + x1,2 <= 0
 c9:  - y3 + x0,3 + x1,3 <= 0
 c10: - y4 + x0,4 + x1,4 <= 0
 c11: - y0 + x0,0 + x4,0 <= 0
 c12: - y1 + x0,1 + x4,1 <= 0
 c13: - y2 + x0,2 + x4,2 <= 0
 c14: - y3 + x0,3 + x4,3 <= 0
 c15: - y4 + x0,4 + x4,4 <= 0
 c16: - y0 + x1,0 + x2,0 <= 0
 c17: - y1 + x1,1 + x2,1 <= 0
 c18: - y2 + x1,2 + x2,2 <= 0
 c19: - y3 + x1,3 + x2,3 <= 0
 c20: - y4 + x1,4 + x2,4 <= 0
 c21: - y0 + x2,0 + x3,0 <= 0
 c22: - y1 + x2,1 + x3,1 <= 0
 c23: - y2 + x2,2 + x3,2 <= 0
 c24: - y3 + x2,3 + x3,3 <= 0
 c25: - y4 + x2,4 + x3,4 <= 0
 c26: - y0 + x3,0 + x4,0 <= 0
 c27: - y1 + x3,1 + x4,1 <= 0
 c28: - y2 + x3,2 + x4,2 <= 0
 c29: - y3 + x3,3 + x4,3 <= 0
 c30: - y4 + x3,4 + x4,4 <= 0
Bounds
 0 <= y0 <= 1
 0 <= y1 <= 1
 0 <= y2 <= 1
 0 <= y3 <= 1
 0 <= y4 <= 1
 0 <= x0,0 <= 1
 0 <= x0,1 <= 1
 0 <= x0,2 <= 1
 0 <= x0,3 <= 1
 0 <= x0,4 <= 1
 0 <= x1,0 <= 1
 0 <= x1,1 <= 1
 0 <= x1,2 <= 1
 0 <= x1,3 <= 1
 0 <= x1,4 <= 1
 0 <= x2,0 <= 1
 0 <= x2,1 <= 1
 0 <= x2,2 <= 1
 0 <= x2,3 <= 1
 0 <= x2,4 <= 1
 0 <= x3,0 <= 1
 0 <= x3,1 <= 1
 0 <= x3,2 <= 1
 0 <= x3,3 <= 1
 0 <= x3,4 <= 1
 0 <= x4,0 <= 1
 0 <= x4,1 <= 1
 0 <= x4,2 <= 1
 0 <= x4,3 <= 1
 0 <= x4,4 <= 1
Binaries
 y0  y1  y2  y3  y4  x0,0  x0,1  x0,2  x0,3  x0,4  x1,0  x1,1  x1,2  x1,3 
 x1,4  x2,0  x2,1  x2,2  x2,3  x2,4  x3,0  x3,1  x3,2  x3,3  x3,4  x4,0  x4,1 
 x4,2  x4,3  x4,4 
End
